robust/generate/spp_dkp_Lefebvre_et_al_2026/src/shortest_path_9_2.kp
44
269

[3.87 0.49 3.45 1.67 1.67 2.83 1.83 1.9 2.36 3.29 4.45 2.12 1.98 0.53 1.01 4.44 4.38 4.09 3.0 0.99 2.95 0.65 2.13 4.05 1.2 3.08 4.0 0.69 2.61 0.74 0.8 0.48 0.94 2.11 3.69 4.6 3.73 1.75 2.39 0.27 3.3 0.34 4.09 3.37 3.87 3.29 3.23 4.31 4.09 0.44 2.12 2.29 0.51 0.71 4.57 1.26 4.16 0.76]

[77 11 77 60 43 49 76 61 89 51 39 58 30 7 29 17 74 56 11 28 57 88 80 100 97 84 41 51 22 96 26 29 54 95 9 99 18 64 3 51 6 3 1 48 85 69 96 77 2 2 33 44 67 97 9 49 91 83]
