robust/generate/spp_dkp_Lefebvre_et_al_2026/src/shortest_path_9_2.lp
\ Model sp_9_2
\ LP format - for model browsing. Use MPS format to capture full model detail.
\ Signature: 0x5b6ef6aeab80ea12
Minimize
  28.6 y[0,1] + 58.14 y[0,2] + 38.21 y[0,3] + 64.76 y[0,4] + 57.27 y[0,5]
   + 68.01 y[0,6] + 60.96 y[0,7] + 47.01 y[0,8] + 28.6 y[1,0]
   + 86.68 y[1,2] + 64.51 y[1,3] + 85.48 y[1,5] + 38.42 y[1,8]
   + 58.14 y[2,0] + 86.68 y[2,1] + 34.53 y[2,3] + 29.83 y[2,4]
   + 16.12 y[2,5] + 61.68 y[2,6] + 2.83 y[2,7] + 38.21 y[3,0]
   + 64.51 y[3,1] + 34.53 y[3,2] + 27.31 y[3,4] + 24.41 y[3,5]
   + 36.12 y[3,6] + 36.88 y[3,7] + 63.01 y[3,8] + 64.76 y[4,0]
   + 29.83 y[4,2] + 27.31 y[4,3] + 14.21 y[4,5] + 35.06 y[4,6]
   + 30.23 y[4,7] + 57.27 y[5,0] + 85.48 y[5,1] + 16.12 y[5,2]
   + 24.41 y[5,3] + 14.21 y[5,4] + 45.88 y[5,6] + 17.09 y[5,7]
   + 68.01 y[6,0] + 61.68 y[6,2] + 36.12 y[6,3] + 35.06 y[6,4]
   + 45.88 y[6,5] + 62.94 y[6,7] + 69.46 y[6,8] + 60.96 y[7,0]
   + 2.83 y[7,2] + 36.88 y[7,3] + 30.23 y[7,4] + 17.09 y[7,5]
   + 62.94 y[7,6] + 47.01 y[8,0] + 38.42 y[8,1] + 63.01 y[8,3]
   + 69.46 y[8,6] + 2.86 r[0,1] + 5.814 r[0,2] + 3.821 r[0,3]
   + 6.476 r[0,4] + 5.727 r[0,5] + 6.801 r[0,6] + 6.096 r[0,7]
   + 4.701 r[0,8] + 2.86 r[1,0] + 8.668 r[1,2] + 6.451 r[1,3]
   + 8.548 r[1,5] + 3.842 r[1,8] + 5.814 r[2,0] + 8.668 r[2,1]
   + 3.453 r[2,3] + 2.983 r[2,4] + 1.612 r[2,5] + 6.168 r[2,6]
   + 0.283 r[2,7] + 3.821 r[3,0] + 6.451 r[3,1] + 3.453 r[3,2]
   + 2.731 r[3,4] + 2.441 r[3,5] + 3.612 r[3,6] + 3.688 r[3,7]
   + 6.301 r[3,8] + 6.476 r[4,0] + 2.983 r[4,2] + 2.731 r[4,3]
   + 1.421 r[4,5] + 3.506 r[4,6] + 3.023 r[4,7] + 5.727 r[5,0]
   + 8.548 r[5,1] + 1.612 r[5,2] + 2.441 r[5,3] + 1.421 r[5,4]
   + 4.588 r[5,6] + 1.709 r[5,7] + 6.801 r[6,0] + 6.168 r[6,2]
   + 3.612 r[6,3] + 3.506 r[6,4] + 4.588 r[6,5] + 6.294 r[6,7]
   + 6.946 r[6,8] + 6.096 r[7,0] + 0.283 r[7,2] + 3.688 r[7,3]
   + 3.023 r[7,4] + 1.709 r[7,5] + 6.294 r[7,6] + 4.701 r[8,0]
   + 3.842 r[8,1] + 6.301 r[8,3] + 6.946 r[8,6]
Subject To
 flow_cons_inner_nodes[0]: - y[0,1] - y[0,2] - y[0,3] - y[0,4] - y[0,5]
   - y[0,6] - y[0,7] - y[0,8] + y[1,0] + y[2,0] + y[3,0] + y[4,0] + y[5,0]
   + y[6,0] + y[7,0] + y[8,0] = 0
 flow_cons_inner_nodes[1]: y[0,1] - y[1,0] - y[1,2] - y[1,3] - y[1,5]
   - y[1,8] + y[2,1] + y[3,1] + y[5,1] + y[8,1] = 0
 flow_cons_inner_nodes[2]: y[0,2] + y[1,2] - y[2,0] - y[2,1] - y[2,3]
   - y[2,4] - y[2,5] - y[2,6] - y[2,7] + y[3,2] + y[4,2] + y[5,2] + y[6,2]
   + y[7,2] = 0
 flow_cons_inner_nodes[3]: y[0,3] + y[1,3] + y[2,3] - y[3,0] - y[3,1]
   - y[3,2] - y[3,4] - y[3,5] - y[3,6] - y[3,7] - y[3,8] + y[4,3] + y[5,3]
   + y[6,3] + y[7,3] + y[8,3] = 0
 flow_cons_inner_nodes[4]: y[0,4] + y[2,4] + y[3,4] - y[4,0] - y[4,2]
   - y[4,3] - y[4,5] - y[4,6] - y[4,7] + y[5,4] + y[6,4] + y[7,4] = 0
 flow_cons_inner_nodes[5]: y[0,5] + y[1,5] + y[2,5] + y[3,5] + y[4,5]
   - y[5,0] - y[5,1] - y[5,2] - y[5,3] - y[5,4] - y[5,6] - y[5,7] + y[6,5]
   + y[7,5] = 0
 flow_cons_inner_nodes[6]: y[0,6] + y[2,6] + y[3,6] + y[4,6] + y[5,6]
   - y[6,0] - y[6,2] - y[6,3] - y[6,4] - y[6,5] - y[6,7] - y[6,8] + y[7,6]
   + y[8,6] = 0
 flow_cons_source: - y[0,7] - y[2,7] - y[3,7] - y[4,7] - y[5,7] - y[6,7]
   + y[7,0] + y[7,2] + y[7,3] + y[7,4] + y[7,5] + y[7,6] = 1
 flow_cons_target: y[0,8] + y[1,8] + y[3,8] + y[6,8] - y[8,0] - y[8,1]
   - y[8,3] - y[8,6] = 1
 primal_lower: - 3.87 y[0,1] - 0.49 y[0,2] - 3.45 y[0,3] - 1.67 y[0,4]
   - 1.67 y[0,5] - 2.83 y[0,6] - 1.83 y[0,7] - 1.9 y[0,8] - 2.36 y[1,0]
   - 3.29 y[1,2] - 4.45 y[1,3] - 2.12 y[1,5] - 1.98 y[1,8] - 0.53 y[2,0]
   - 1.01 y[2,1] - 4.44 y[2,3] - 4.38 y[2,4] - 4.09 y[2,5] - 3 y[2,6]
   - 0.99 y[2,7] - 2.95 y[3,0] - 0.65 y[3,1] - 2.13 y[3,2] - 4.05 y[3,4]
   - 1.2 y[3,5] - 3.08 y[3,6] - 4 y[3,7] - 0.69 y[3,8] - 2.61 y[4,0]
   - 0.74 y[4,2] - 0.8 y[4,3] - 0.48 y[4,5] - 0.94 y[4,6] - 2.11 y[4,7]
   - 3.69 y[5,0] - 4.6 y[5,1] - 3.73 y[5,2] - 1.75 y[5,3] - 2.39 y[5,4]
   - 0.27 y[5,6] - 3.3 y[5,7] - 0.34 y[6,0] - 4.09 y[6,2] - 3.37 y[6,3]
   - 3.87 y[6,4] - 3.29 y[6,5] - 3.23 y[6,7] - 4.31 y[6,8] - 4.09 y[7,0]
   - 0.44 y[7,2] - 2.12 y[7,3] - 2.29 y[7,4] - 0.51 y[7,5] - 0.71 y[7,6]
   - 4.57 y[8,0] - 1.26 y[8,1] - 4.16 y[8,3] - 0.76 y[8,6] + 77 u[0,1]
   + 11 u[0,2] + 77 u[0,3] + 60 u[0,4] + 43 u[0,5] + 49 u[0,6] + 76 u[0,7]
   + 61 u[0,8] + 89 u[1,0] + 51 u[1,2] + 39 u[1,3] + 58 u[1,5] + 30 u[1,8]
   + 7 u[2,0] + 29 u[2,1] + 17 u[2,3] + 74 u[2,4] + 56 u[2,5] + 11 u[2,6]
   + 28 u[2,7] + 57 u[3,0] + 88 u[3,1] + 80 u[3,2] + 100 u[3,4] + 97 u[3,5]
   + 84 u[3,6] + 41 u[3,7] + 51 u[3,8] + 22 u[4,0] + 96 u[4,2] + 26 u[4,3]
   + 29 u[4,5] + 54 u[4,6] + 95 u[4,7] + 9 u[5,0] + 99 u[5,1] + 18 u[5,2]
   + 64 u[5,3] + 3 u[5,4] + 51 u[5,6] + 6 u[5,7] + 3 u[6,0] + u[6,2]
   + 48 u[6,3] + 85 u[6,4] + 69 u[6,5] + 96 u[6,7] + 77 u[6,8] + 2 u[7,0]
   + 2 u[7,2] + 33 u[7,3] + 44 u[7,4] + 67 u[7,5] + 97 u[7,6] + 9 u[8,0]
   + 49 u[8,1] + 91 u[8,3] + 83 u[8,6] <= 269
 mccormick1[0,1]: - u[0,1] + r[0,1] <= 0
 mccormick1[0,2]: - u[0,2] + r[0,2] <= 0
 mccormick1[0,3]: - u[0,3] + r[0,3] <= 0
 mccormick1[0,4]: - u[0,4] + r[0,4] <= 0
 mccormick1[0,5]: - u[0,5] + r[0,5] <= 0
 mccormick1[0,6]: - u[0,6] + r[0,6] <= 0
 mccormick1[0,7]: - u[0,7] + r[0,7] <= 0
 mccormick1[0,8]: - u[0,8] + r[0,8] <= 0
 mccormick1[1,0]: - u[1,0] + r[1,0] <= 0
 mccormick1[1,2]: - u[1,2] + r[1,2] <= 0
 mccormick1[1,3]: - u[1,3] + r[1,3] <= 0
 mccormick1[1,5]: - u[1,5] + r[1,5] <= 0
 mccormick1[1,8]: - u[1,8] + r[1,8] <= 0
 mccormick1[2,0]: - u[2,0] + r[2,0] <= 0
 mccormick1[2,1]: - u[2,1] + r[2,1] <= 0
 mccormick1[2,3]: - u[2,3] + r[2,3] <= 0
 mccormick1[2,4]: - u[2,4] + r[2,4] <= 0
 mccormick1[2,5]: - u[2,5] + r[2,5] <= 0
 mccormick1[2,6]: - u[2,6] + r[2,6] <= 0
 mccormick1[2,7]: - u[2,7] + r[2,7] <= 0
 mccormick1[3,0]: - u[3,0] + r[3,0] <= 0
 mccormick1[3,1]: - u[3,1] + r[3,1] <= 0
 mccormick1[3,2]: - u[3,2] + r[3,2] <= 0
 mccormick1[3,4]: - u[3,4] + r[3,4] <= 0
 mccormick1[3,5]: - u[3,5] + r[3,5] <= 0
 mccormick1[3,6]: - u[3,6] + r[3,6] <= 0
 mccormick1[3,7]: - u[3,7] + r[3,7] <= 0
 mccormick1[3,8]: - u[3,8] + r[3,8] <= 0
 mccormick1[4,0]: - u[4,0] + r[4,0] <= 0
 mccormick1[4,2]: - u[4,2] + r[4,2] <= 0
 mccormick1[4,3]: - u[4,3] + r[4,3] <= 0
 mccormick1[4,5]: - u[4,5] + r[4,5] <= 0
 mccormick1[4,6]: - u[4,6] + r[4,6] <= 0
 mccormick1[4,7]: - u[4,7] + r[4,7] <= 0
 mccormick1[5,0]: - u[5,0] + r[5,0] <= 0
 mccormick1[5,1]: - u[5,1] + r[5,1] <= 0
 mccormick1[5,2]: - u[5,2] + r[5,2] <= 0
 mccormick1[5,3]: - u[5,3] + r[5,3] <= 0
 mccormick1[5,4]: - u[5,4] + r[5,4] <= 0
 mccormick1[5,6]: - u[5,6] + r[5,6] <= 0
 mccormick1[5,7]: - u[5,7] + r[5,7] <= 0
 mccormick1[6,0]: - u[6,0] + r[6,0] <= 0
 mccormick1[6,2]: - u[6,2] + r[6,2] <= 0
 mccormick1[6,3]: - u[6,3] + r[6,3] <= 0
 mccormick1[6,4]: - u[6,4] + r[6,4] <= 0
 mccormick1[6,5]: - u[6,5] + r[6,5] <= 0
 mccormick1[6,7]: - u[6,7] + r[6,7] <= 0
 mccormick1[6,8]: - u[6,8] + r[6,8] <= 0
 mccormick1[7,0]: - u[7,0] + r[7,0] <= 0
 mccormick1[7,2]: - u[7,2] + r[7,2] <= 0
 mccormick1[7,3]: - u[7,3] + r[7,3] <= 0
 mccormick1[7,4]: - u[7,4] + r[7,4] <= 0
 mccormick1[7,5]: - u[7,5] + r[7,5] <= 0
 mccormick1[7,6]: - u[7,6] + r[7,6] <= 0
 mccormick1[8,0]: - u[8,0] + r[8,0] <= 0
 mccormick1[8,1]: - u[8,1] + r[8,1] <= 0
 mccormick1[8,3]: - u[8,3] + r[8,3] <= 0
 mccormick1[8,6]: - u[8,6] + r[8,6] <= 0
 mccormick2[0,1]: - y[0,1] + r[0,1] <= 0
 mccormick2[0,2]: - y[0,2] + r[0,2] <= 0
 mccormick2[0,3]: - y[0,3] + r[0,3] <= 0
 mccormick2[0,4]: - y[0,4] + r[0,4] <= 0
 mccormick2[0,5]: - y[0,5] + r[0,5] <= 0
 mccormick2[0,6]: - y[0,6] + r[0,6] <= 0
 mccormick2[0,7]: - y[0,7] + r[0,7] <= 0
 mccormick2[0,8]: - y[0,8] + r[0,8] <= 0
 mccormick2[1,0]: - y[1,0] + r[1,0] <= 0
 mccormick2[1,2]: - y[1,2] + r[1,2] <= 0
 mccormick2[1,3]: - y[1,3] + r[1,3] <= 0
 mccormick2[1,5]: - y[1,5] + r[1,5] <= 0
 mccormick2[1,8]: - y[1,8] + r[1,8] <= 0
 mccormick2[2,0]: - y[2,0] + r[2,0] <= 0
 mccormick2[2,1]: - y[2,1] + r[2,1] <= 0
 mccormick2[2,3]: - y[2,3] + r[2,3] <= 0
 mccormick2[2,4]: - y[2,4] + r[2,4] <= 0
 mccormick2[2,5]: - y[2,5] + r[2,5] <= 0
 mccormick2[2,6]: - y[2,6] + r[2,6] <= 0
 mccormick2[2,7]: - y[2,7] + r[2,7] <= 0
 mccormick2[3,0]: - y[3,0] + r[3,0] <= 0
 mccormick2[3,1]: - y[3,1] + r[3,1] <= 0
 mccormick2[3,2]: - y[3,2] + r[3,2] <= 0
 mccormick2[3,4]: - y[3,4] + r[3,4] <= 0
 mccormick2[3,5]: - y[3,5] + r[3,5] <= 0
 mccormick2[3,6]: - y[3,6] + r[3,6] <= 0
 mccormick2[3,7]: - y[3,7] + r[3,7] <= 0
 mccormick2[3,8]: - y[3,8] + r[3,8] <= 0
 mccormick2[4,0]: - y[4,0] + r[4,0] <= 0
 mccormick2[4,2]: - y[4,2] + r[4,2] <= 0
 mccormick2[4,3]: - y[4,3] + r[4,3] <= 0
 mccormick2[4,5]: - y[4,5] + r[4,5] <= 0
 mccormick2[4,6]: - y[4,6] + r[4,6] <= 0
 mccormick2[4,7]: - y[4,7] + r[4,7] <= 0
 mccormick2[5,0]: - y[5,0] + r[5,0] <= 0
 mccormick2[5,1]: - y[5,1] + r[5,1] <= 0
 mccormick2[5,2]: - y[5,2] + r[5,2] <= 0
 mccormick2[5,3]: - y[5,3] + r[5,3] <= 0
 mccormick2[5,4]: - y[5,4] + r[5,4] <= 0
 mccormick2[5,6]: - y[5,6] + r[5,6] <= 0
 mccormick2[5,7]: - y[5,7] + r[5,7] <= 0
 mccormick2[6,0]: - y[6,0] + r[6,0] <= 0
 mccormick2[6,2]: - y[6,2] + r[6,2] <= 0
 mccormick2[6,3]: - y[6,3] + r[6,3] <= 0
 mccormick2[6,4]: - y[6,4] + r[6,4] <= 0
 mccormick2[6,5]: - y[6,5] + r[6,5] <= 0
 mccormick2[6,7]: - y[6,7] + r[6,7] <= 0
 mccormick2[6,8]: - y[6,8] + r[6,8] <= 0
 mccormick2[7,0]: - y[7,0] + r[7,0] <= 0
 mccormick2[7,2]: - y[7,2] + r[7,2] <= 0
 mccormick2[7,3]: - y[7,3] + r[7,3] <= 0
 mccormick2[7,4]: - y[7,4] + r[7,4] <= 0
 mccormick2[7,5]: - y[7,5] + r[7,5] <= 0
 mccormick2[7,6]: - y[7,6] + r[7,6] <= 0
 mccormick2[8,0]: - y[8,0] + r[8,0] <= 0
 mccormick2[8,1]: - y[8,1] + r[8,1] <= 0
 mccormick2[8,3]: - y[8,3] + r[8,3] <= 0
 mccormick2[8,6]: - y[8,6] + r[8,6] <= 0
 mccormick3[0,1]: - y[0,1] - u[0,1] + r[0,1] >= -1
 mccormick3[0,2]: - y[0,2] - u[0,2] + r[0,2] >= -1
 mccormick3[0,3]: - y[0,3] - u[0,3] + r[0,3] >= -1
 mccormick3[0,4]: - y[0,4] - u[0,4] + r[0,4] >= -1
 mccormick3[0,5]: - y[0,5] - u[0,5] + r[0,5] >= -1
 mccormick3[0,6]: - y[0,6] - u[0,6] + r[0,6] >= -1
 mccormick3[0,7]: - y[0,7] - u[0,7] + r[0,7] >= -1
 mccormick3[0,8]: - y[0,8] - u[0,8] + r[0,8] >= -1
 mccormick3[1,0]: - y[1,0] - u[1,0] + r[1,0] >= -1
 mccormick3[1,2]: - y[1,2] - u[1,2] + r[1,2] >= -1
 mccormick3[1,3]: - y[1,3] - u[1,3] + r[1,3] >= -1
 mccormick3[1,5]: - y[1,5] - u[1,5] + r[1,5] >= -1
 mccormick3[1,8]: - y[1,8] - u[1,8] + r[1,8] >= -1
 mccormick3[2,0]: - y[2,0] - u[2,0] + r[2,0] >= -1
 mccormick3[2,1]: - y[2,1] - u[2,1] + r[2,1] >= -1
 mccormick3[2,3]: - y[2,3] - u[2,3] + r[2,3] >= -1
 mccormick3[2,4]: - y[2,4] - u[2,4] + r[2,4] >= -1
 mccormick3[2,5]: - y[2,5] - u[2,5] + r[2,5] >= -1
 mccormick3[2,6]: - y[2,6] - u[2,6] + r[2,6] >= -1
 mccormick3[2,7]: - y[2,7] - u[2,7] + r[2,7] >= -1
 mccormick3[3,0]: - y[3,0] - u[3,0] + r[3,0] >= -1
 mccormick3[3,1]: - y[3,1] - u[3,1] + r[3,1] >= -1
 mccormick3[3,2]: - y[3,2] - u[3,2] + r[3,2] >= -1
 mccormick3[3,4]: - y[3,4] - u[3,4] + r[3,4] >= -1
 mccormick3[3,5]: - y[3,5] - u[3,5] + r[3,5] >= -1
 mccormick3[3,6]: - y[3,6] - u[3,6] + r[3,6] >= -1
 mccormick3[3,7]: - y[3,7] - u[3,7] + r[3,7] >= -1
 mccormick3[3,8]: - y[3,8] - u[3,8] + r[3,8] >= -1
 mccormick3[4,0]: - y[4,0] - u[4,0] + r[4,0] >= -1
 mccormick3[4,2]: - y[4,2] - u[4,2] + r[4,2] >= -1
 mccormick3[4,3]: - y[4,3] - u[4,3] + r[4,3] >= -1
 mccormick3[4,5]: - y[4,5] - u[4,5] + r[4,5] >= -1
 mccormick3[4,6]: - y[4,6] - u[4,6] + r[4,6] >= -1
 mccormick3[4,7]: - y[4,7] - u[4,7] + r[4,7] >= -1
 mccormick3[5,0]: - y[5,0] - u[5,0] + r[5,0] >= -1
 mccormick3[5,1]: - y[5,1] - u[5,1] + r[5,1] >= -1
 mccormick3[5,2]: - y[5,2] - u[5,2] + r[5,2] >= -1
 mccormick3[5,3]: - y[5,3] - u[5,3] + r[5,3] >= -1
 mccormick3[5,4]: - y[5,4] - u[5,4] + r[5,4] >= -1
 mccormick3[5,6]: - y[5,6] - u[5,6] + r[5,6] >= -1
 mccormick3[5,7]: - y[5,7] - u[5,7] + r[5,7] >= -1
 mccormick3[6,0]: - y[6,0] - u[6,0] + r[6,0] >= -1
 mccormick3[6,2]: - y[6,2] - u[6,2] + r[6,2] >= -1
 mccormick3[6,3]: - y[6,3] - u[6,3] + r[6,3] >= -1
 mccormick3[6,4]: - y[6,4] - u[6,4] + r[6,4] >= -1
 mccormick3[6,5]: - y[6,5] - u[6,5] + r[6,5] >= -1
 mccormick3[6,7]: - y[6,7] - u[6,7] + r[6,7] >= -1
 mccormick3[6,8]: - y[6,8] - u[6,8] + r[6,8] >= -1
 mccormick3[7,0]: - y[7,0] - u[7,0] + r[7,0] >= -1
 mccormick3[7,2]: - y[7,2] - u[7,2] + r[7,2] >= -1
 mccormick3[7,3]: - y[7,3] - u[7,3] + r[7,3] >= -1
 mccormick3[7,4]: - y[7,4] - u[7,4] + r[7,4] >= -1
 mccormick3[7,5]: - y[7,5] - u[7,5] + r[7,5] >= -1
 mccormick3[7,6]: - y[7,6] - u[7,6] + r[7,6] >= -1
 mccormick3[8,0]: - y[8,0] - u[8,0] + r[8,0] >= -1
 mccormick3[8,1]: - y[8,1] - u[8,1] + r[8,1] >= -1
 mccormick3[8,3]: - y[8,3] - u[8,3] + r[8,3] >= -1
 mccormick3[8,6]: - y[8,6] - u[8,6] + r[8,6] >= -1
Bounds
Binaries
 y[0,1] y[0,2] y[0,3] y[0,4] y[0,5] y[0,6] y[0,7] y[0,8] y[1,0] y[1,2]
 y[1,3] y[1,5] y[1,8] y[2,0] y[2,1] y[2,3] y[2,4] y[2,5] y[2,6] y[2,7]
 y[3,0] y[3,1] y[3,2] y[3,4] y[3,5] y[3,6] y[3,7] y[3,8] y[4,0] y[4,2]
 y[4,3] y[4,5] y[4,6] y[4,7] y[5,0] y[5,1] y[5,2] y[5,3] y[5,4] y[5,6]
 y[5,7] y[6,0] y[6,2] y[6,3] y[6,4] y[6,5] y[6,7] y[6,8] y[7,0] y[7,2]
 y[7,3] y[7,4] y[7,5] y[7,6] y[8,0] y[8,1] y[8,3] y[8,6] u[0,1] u[0,2]
 u[0,3] u[0,4] u[0,5] u[0,6] u[0,7] u[0,8] u[1,0] u[1,2] u[1,3] u[1,5]
 u[1,8] u[2,0] u[2,1] u[2,3] u[2,4] u[2,5] u[2,6] u[2,7] u[3,0] u[3,1]
 u[3,2] u[3,4] u[3,5] u[3,6] u[3,7] u[3,8] u[4,0] u[4,2] u[4,3] u[4,5]
 u[4,6] u[4,7] u[5,0] u[5,1] u[5,2] u[5,3] u[5,4] u[5,6] u[5,7] u[6,0]
 u[6,2] u[6,3] u[6,4] u[6,5] u[6,7] u[6,8] u[7,0] u[7,2] u[7,3] u[7,4]
 u[7,5] u[7,6] u[8,0] u[8,1] u[8,3] u[8,6] r[0,1] r[0,2] r[0,3] r[0,4]
 r[0,5] r[0,6] r[0,7] r[0,8] r[1,0] r[1,2] r[1,3] r[1,5] r[1,8] r[2,0]
 r[2,1] r[2,3] r[2,4] r[2,5] r[2,6] r[2,7] r[3,0] r[3,1] r[3,2] r[3,4]
 r[3,5] r[3,6] r[3,7] r[3,8] r[4,0] r[4,2] r[4,3] r[4,5] r[4,6] r[4,7]
 r[5,0] r[5,1] r[5,2] r[5,3] r[5,4] r[5,6] r[5,7] r[6,0] r[6,2] r[6,3]
 r[6,4] r[6,5] r[6,7] r[6,8] r[7,0] r[7,2] r[7,3] r[7,4] r[7,5] r[7,6]
 r[8,0] r[8,1] r[8,3] r[8,6]
End
